CMPL model generation - running

CMPL version: 1.11.0
Authors: Thomas Schleiff, Mike Steglich
Distributed under the GPLv3 

create model instance ...
write model instance ...
CMPL model generation - finished

Solver - running


Welcome to IBM(R) ILOG(R) CPLEX(R) Interactive Optimizer 12.7.1.0
  with Simplex, Mixed Integer & Barrier Optimizers
5725-A06 5725-A29 5724-Y48 5724-Y49 5724-Y54 5724-Y55 5655-Y21
Copyright IBM Corp. 1988, 2017.  All Rights Reserved.

Type 'help' for a list of available commands.
Type 'help' followed by a command name for more
information on commands.

CPLEX> Specified objective sense: MINIMIZE
Selected objective  name:  line[1]
Selected RHS        name:  RHS
Selected bound      name:  BOUND
Problem '/tmp/cmpl.T23699.mps' read.
Read time = 0.05 sec. (8.17 ticks)
CPLEX> CPXPARAM_Read_APIEncoding                        "UTF-8"
Tried aggregator 3 times.
MIP Presolve eliminated 19281 rows and 30785 columns.
MIP Presolve modified 340 coefficients.
Aggregator did 602 substitutions.
Reduced MIP has 2472 rows, 3206 columns, and 9366 nonzeros.
Reduced MIP has 3038 binaries, 0 generals, 0 SOSs, and 0 indicators.
Presolve time = 0.06 sec. (40.29 ticks)
Found incumbent of value 425.680108 after 0.09 sec. (57.89 ticks)
Probing fixed 3 vars, tightened 0 bounds.
Probing time = 0.01 sec. (4.13 ticks)
Tried aggregator 1 time.
MIP Presolve eliminated 0 rows and 3 columns.
MIP Presolve modified 13 coefficients.
Reduced MIP has 2472 rows, 3203 columns, and 9360 nonzeros.
Reduced MIP has 3203 binaries, 0 generals, 0 SOSs, and 0 indicators.
Presolve time = 0.01 sec. (7.95 ticks)
Probing time = 0.01 sec. (2.66 ticks)
Clique table members: 5840.
MIP emphasis: balance optimality and feasibility.
MIP search method: dynamic search.
Parallel mode: none, using 1 thread.
Root relaxation solution time = 0.00 sec. (4.30 ticks)

        Nodes                                         Cuts/
   Node  Left     Objective  IInf  Best Integer    Best Bound    ItCnt     Gap

*     0+    0                          425.6801      -48.2682           111.34%
      0     0       59.0666    19      425.6801       59.0666       87   86.12%
*     0+    0                           59.6095       59.0666             0.91%
      0     0       59.5582     1       59.6095      Cuts: 15       94    0.09%
*     0+    0                           59.5809       59.5582             0.04%
      0     0        cutoff             59.5809                     94    0.00%
Elapsed time = 0.15 sec. (96.68 ticks, tree = 0.01 MB, solutions = 3)

Cover cuts applied:  10
Gomory fractional cuts applied:  5

Root node processing (before b&c):
  Real time             =    0.15 sec. (98.16 ticks)
Sequential b&c:
  Real time             =    0.00 sec. (0.00 ticks)
                          ------------
Total (root+branch&cut) =    0.15 sec. (98.16 ticks)

Solution pool: 3 solutions saved.

MIP - Integer optimal solution:  Objective =  5.9580906000e+01
Solution time =    0.15 sec.  Iterations = 94  Nodes = 0
Deterministic time = 98.26 ticks  (665.82 ticks/sec)

CPLEX> Incumbent solution written to file '/tmp/cmpl.T23699.gsol'.
CPLEX> 
CMPL: Time used for model generation: 0 seconds
CMPL: Time used for solving the model: 1 seconds


Solution written to ASCII file: results/output_generated_conf_0.2/2017-03-06-4/fair-nonlinear.sol

Solver - finished
